coords = array2d(1..61, 1..2, [665, 488, 543, 185, 979, 571, 579, 668, 692,
    422, 416, 602, 102, 659, 937, 867, 539, 669, 396, 930, 384, 461,
    496, 688, 540, 281, 546, 870, 295, 201, 394, 341, 495, 118, 849,
    259, 559, 731, 376, 700, 441, 923, 619, 28, 908, 367, 756, 802,
    18, 997, 25, 642, 57, 935, 640, 407, 849, 531, 60, 554, 506, 549,
    415, 107, 864, 2, 254, 617, 578, 142, 153, 899, 793, 49, 451, 206,
    904, 677, 94, 20, 864, 304, 492, 318, 325, 744, 587, 509, 847,
    366, 323, 286, 776, 638, 692, 110, 395, 619, 32, 966, 879, 746,
    674, 22, 845, 558, 986, 707, 191, 811, 266, 222, 691, 120, 818,
    206, 223, 319, 538, 214, 161, 105]);

n = 61;

